; benchmark generated from python API
(set-info :status unknown)
(declare-fun cell_1_8 () Int)
(declare-fun cell_1_9 () Int)
(declare-fun cell_2_2 () Int)
(declare-fun cell_2_5 () Int)
(declare-fun cell_3_4 () Int)
(declare-fun cell_4_9 () Int)
(declare-fun cell_5_1 () Int)
(declare-fun cell_6_6 () Int)
(declare-fun cell_7_7 () Int)
(declare-fun cell_8_5 () Int)
(declare-fun cell_9_3 () Int)
(declare-fun cell_1_1 () Int)
(declare-fun cell_2_1 () Int)
(declare-fun cell_3_1 () Int)
(declare-fun cell_4_1 () Int)
(declare-fun cell_6_1 () Int)
(declare-fun cell_7_1 () Int)
(declare-fun cell_8_1 () Int)
(declare-fun cell_9_1 () Int)
(declare-fun cell_1_2 () Int)
(declare-fun cell_3_2 () Int)
(declare-fun cell_4_2 () Int)
(declare-fun cell_5_2 () Int)
(declare-fun cell_6_2 () Int)
(declare-fun cell_7_2 () Int)
(declare-fun cell_8_2 () Int)
(declare-fun cell_9_2 () Int)
(declare-fun cell_1_3 () Int)
(declare-fun cell_2_3 () Int)
(declare-fun cell_3_3 () Int)
(declare-fun cell_4_3 () Int)
(declare-fun cell_5_3 () Int)
(declare-fun cell_6_3 () Int)
(declare-fun cell_7_3 () Int)
(declare-fun cell_8_3 () Int)
(declare-fun cell_1_4 () Int)
(declare-fun cell_2_4 () Int)
(declare-fun cell_4_4 () Int)
(declare-fun cell_5_4 () Int)
(declare-fun cell_6_4 () Int)
(declare-fun cell_7_4 () Int)
(declare-fun cell_8_4 () Int)
(declare-fun cell_9_4 () Int)
(declare-fun cell_1_5 () Int)
(declare-fun cell_3_5 () Int)
(declare-fun cell_4_5 () Int)
(declare-fun cell_5_5 () Int)
(declare-fun cell_6_5 () Int)
(declare-fun cell_7_5 () Int)
(declare-fun cell_9_5 () Int)
(declare-fun cell_1_6 () Int)
(declare-fun cell_2_6 () Int)
(declare-fun cell_3_6 () Int)
(declare-fun cell_4_6 () Int)
(declare-fun cell_5_6 () Int)
(declare-fun cell_7_6 () Int)
(declare-fun cell_8_6 () Int)
(declare-fun cell_9_6 () Int)
(declare-fun cell_1_7 () Int)
(declare-fun cell_2_7 () Int)
(declare-fun cell_3_7 () Int)
(declare-fun cell_4_7 () Int)
(declare-fun cell_5_7 () Int)
(declare-fun cell_6_7 () Int)
(declare-fun cell_8_7 () Int)
(declare-fun cell_9_7 () Int)
(declare-fun cell_2_8 () Int)
(declare-fun cell_3_8 () Int)
(declare-fun cell_4_8 () Int)
(declare-fun cell_5_8 () Int)
(declare-fun cell_6_8 () Int)
(declare-fun cell_7_8 () Int)
(declare-fun cell_8_8 () Int)
(declare-fun cell_9_8 () Int)
(declare-fun cell_2_9 () Int)
(declare-fun cell_3_9 () Int)
(declare-fun cell_5_9 () Int)
(declare-fun cell_6_9 () Int)
(declare-fun cell_7_9 () Int)
(declare-fun cell_8_9 () Int)
(declare-fun cell_9_9 () Int)
(assert
 (= cell_1_8 1))
(assert
 (= cell_1_9 2))
(assert
 (= cell_2_2 1))
(assert
 (= cell_2_5 2))
(assert
 (= cell_3_4 1))
(assert
 (= cell_4_9 1))
(assert
 (= cell_5_1 1))
(assert
 (= cell_6_6 1))
(assert
 (= cell_7_7 1))
(assert
 (= cell_8_5 1))
(assert
 (= cell_9_3 1))
(assert
 (let (($x1554 (= cell_1_1 9)))
 (let (($x993 (= cell_1_1 8)))
 (let (($x2991 (= cell_1_1 7)))
 (let (($x356 (= cell_1_1 6)))
 (let (($x2081 (= cell_1_1 5)))
 (let (($x2735 (= cell_1_1 4)))
 (let (($x93 (= cell_1_1 3)))
 (let (($x690 (= cell_1_1 2)))
 (let (($x3126 (= cell_1_1 1)))
 (or $x3126 $x690 $x93 $x2735 $x2081 $x356 $x2991 $x993 $x1554)))))))))))
(assert
 (let (($x2851 (= cell_2_1 9)))
 (let (($x1752 (= cell_2_1 8)))
 (let (($x3369 (= cell_2_1 7)))
 (let (($x598 (= cell_2_1 6)))
 (let (($x867 (= cell_2_1 5)))
 (let (($x2006 (= cell_2_1 4)))
 (let (($x227 (= cell_2_1 3)))
 (let (($x1576 (= cell_2_1 2)))
 (let (($x2294 (= cell_2_1 1)))
 (or $x2294 $x1576 $x227 $x2006 $x867 $x598 $x3369 $x1752 $x2851)))))))))))
(assert
 (let (($x1672 (= cell_3_1 9)))
 (let (($x1165 (= cell_3_1 8)))
 (let (($x168 (= cell_3_1 7)))
 (let (($x1033 (= cell_3_1 6)))
 (let (($x2491 (= cell_3_1 5)))
 (let (($x588 (= cell_3_1 4)))
 (let (($x1344 (= cell_3_1 3)))
 (let (($x442 (= cell_3_1 2)))
 (let (($x271 (= cell_3_1 1)))
 (or $x271 $x442 $x1344 $x588 $x2491 $x1033 $x168 $x1165 $x1672)))))))))))
(assert
 (let (($x777 (= cell_4_1 9)))
 (let (($x2590 (= cell_4_1 8)))
 (let (($x1284 (= cell_4_1 7)))
 (let (($x87 (= cell_4_1 6)))
 (let (($x2663 (= cell_4_1 5)))
 (let (($x2383 (= cell_4_1 4)))
 (let (($x2498 (= cell_4_1 3)))
 (let (($x2310 (= cell_4_1 2)))
 (let (($x2058 (= cell_4_1 1)))
 (or $x2058 $x2310 $x2498 $x2383 $x2663 $x87 $x1284 $x2590 $x777)))))))))))
(assert
 (let (($x2595 (= cell_5_1 1)))
 (or $x2595 (= cell_5_1 2) (= cell_5_1 3) (= cell_5_1 4) (= cell_5_1 5) (= cell_5_1 6) (= cell_5_1 7) (= cell_5_1 8) (= cell_5_1 9))))
(assert
 (let (($x436 (= cell_6_1 9)))
 (let (($x1425 (= cell_6_1 8)))
 (let (($x2028 (= cell_6_1 7)))
 (let (($x352 (= cell_6_1 6)))
 (let (($x1967 (= cell_6_1 5)))
 (let (($x998 (= cell_6_1 4)))
 (let (($x2271 (= cell_6_1 3)))
 (let (($x2605 (= cell_6_1 2)))
 (let (($x1485 (= cell_6_1 1)))
 (or $x1485 $x2605 $x2271 $x998 $x1967 $x352 $x2028 $x1425 $x436)))))))))))
(assert
 (let (($x1071 (= cell_7_1 9)))
 (let (($x1797 (= cell_7_1 8)))
 (let (($x243 (= cell_7_1 7)))
 (let (($x2061 (= cell_7_1 6)))
 (let (($x1842 (= cell_7_1 5)))
 (let (($x1881 (= cell_7_1 4)))
 (let (($x2384 (= cell_7_1 3)))
 (let (($x2011 (= cell_7_1 2)))
 (let (($x467 (= cell_7_1 1)))
 (or $x467 $x2011 $x2384 $x1881 $x1842 $x2061 $x243 $x1797 $x1071)))))))))))
(assert
 (let (($x1139 (= cell_8_1 9)))
 (let (($x3128 (= cell_8_1 8)))
 (let (($x89 (= cell_8_1 7)))
 (let (($x2623 (= cell_8_1 6)))
 (let (($x2831 (= cell_8_1 5)))
 (let (($x1522 (= cell_8_1 4)))
 (let (($x2544 (= cell_8_1 3)))
 (let (($x2853 (= cell_8_1 2)))
 (let (($x1377 (= cell_8_1 1)))
 (or $x1377 $x2853 $x2544 $x1522 $x2831 $x2623 $x89 $x3128 $x1139)))))))))))
(assert
 (let (($x2705 (= cell_9_1 9)))
 (let (($x903 (= cell_9_1 8)))
 (let (($x2722 (= cell_9_1 7)))
 (let (($x2259 (= cell_9_1 6)))
 (let (($x813 (= cell_9_1 5)))
 (let (($x2395 (= cell_9_1 4)))
 (let (($x2761 (= cell_9_1 3)))
 (let (($x1075 (= cell_9_1 2)))
 (let (($x492 (= cell_9_1 1)))
 (or $x492 $x1075 $x2761 $x2395 $x813 $x2259 $x2722 $x903 $x2705)))))))))))
(assert
 (let (($x1703 (= cell_1_2 9)))
 (let (($x3241 (= cell_1_2 8)))
 (let (($x1393 (= cell_1_2 7)))
 (let (($x1751 (= cell_1_2 6)))
 (let (($x2167 (= cell_1_2 5)))
 (let (($x1263 (= cell_1_2 4)))
 (let (($x2470 (= cell_1_2 3)))
 (let (($x2716 (= cell_1_2 2)))
 (let (($x2391 (= cell_1_2 1)))
 (or $x2391 $x2716 $x2470 $x1263 $x2167 $x1751 $x1393 $x3241 $x1703)))))))))))
(assert
 (let (($x3057 (= cell_2_2 1)))
 (or $x3057 (= cell_2_2 2) (= cell_2_2 3) (= cell_2_2 4) (= cell_2_2 5) (= cell_2_2 6) (= cell_2_2 7) (= cell_2_2 8) (= cell_2_2 9))))
(assert
 (let (($x1010 (= cell_3_2 9)))
 (let (($x2017 (= cell_3_2 8)))
 (let (($x1883 (= cell_3_2 7)))
 (let (($x255 (= cell_3_2 6)))
 (let (($x3384 (= cell_3_2 5)))
 (let (($x758 (= cell_3_2 4)))
 (let (($x2825 (= cell_3_2 3)))
 (let (($x3377 (= cell_3_2 2)))
 (let (($x2403 (= cell_3_2 1)))
 (or $x2403 $x3377 $x2825 $x758 $x3384 $x255 $x1883 $x2017 $x1010)))))))))))
(assert
 (let (($x514 (= cell_4_2 9)))
 (let (($x1807 (= cell_4_2 8)))
 (let (($x421 (= cell_4_2 7)))
 (let (($x2064 (= cell_4_2 6)))
 (let (($x881 (= cell_4_2 5)))
 (let (($x3029 (= cell_4_2 4)))
 (let (($x2417 (= cell_4_2 3)))
 (let (($x774 (= cell_4_2 2)))
 (let (($x3212 (= cell_4_2 1)))
 (or $x3212 $x774 $x2417 $x3029 $x881 $x2064 $x421 $x1807 $x514)))))))))))
(assert
 (let (($x3084 (= cell_5_2 1)))
 (or $x3084 (= cell_5_2 2) (= cell_5_2 3) (= cell_5_2 4) (= cell_5_2 5) (= cell_5_2 6) (= cell_5_2 7) (= cell_5_2 8) (= cell_5_2 9))))
(assert
 (let (($x2044 (= cell_6_2 9)))
 (let (($x838 (= cell_6_2 8)))
 (let (($x577 (= cell_6_2 7)))
 (let (($x3005 (= cell_6_2 6)))
 (let (($x1978 (= cell_6_2 5)))
 (let (($x165 (= cell_6_2 4)))
 (let (($x1990 (= cell_6_2 3)))
 (let (($x2246 (= cell_6_2 2)))
 (let (($x1367 (= cell_6_2 1)))
 (or $x1367 $x2246 $x1990 $x165 $x1978 $x3005 $x577 $x838 $x2044)))))))))))
(assert
 (let (($x605 (= cell_7_2 9)))
 (let (($x3190 (= cell_7_2 8)))
 (let (($x693 (= cell_7_2 7)))
 (let (($x700 (= cell_7_2 6)))
 (let (($x2094 (= cell_7_2 5)))
 (let (($x3164 (= cell_7_2 4)))
 (let (($x983 (= cell_7_2 3)))
 (let (($x2778 (= cell_7_2 2)))
 (let (($x2224 (= cell_7_2 1)))
 (or $x2224 $x2778 $x983 $x3164 $x2094 $x700 $x693 $x3190 $x605)))))))))))
(assert
 (let (($x2620 (= cell_8_2 9)))
 (let (($x2033 (= cell_8_2 8)))
 (let (($x2551 (= cell_8_2 7)))
 (let (($x575 (= cell_8_2 6)))
 (let (($x2654 (= cell_8_2 5)))
 (let (($x2120 (= cell_8_2 4)))
 (let (($x482 (= cell_8_2 3)))
 (let (($x3063 (= cell_8_2 2)))
 (let (($x1479 (= cell_8_2 1)))
 (or $x1479 $x3063 $x482 $x2120 $x2654 $x575 $x2551 $x2033 $x2620)))))))))))
(assert
 (let (($x2103 (= cell_9_2 9)))
 (let (($x2523 (= cell_9_2 8)))
 (let (($x3381 (= cell_9_2 7)))
 (let (($x2958 (= cell_9_2 6)))
 (let (($x2642 (= cell_9_2 5)))
 (let (($x2577 (= cell_9_2 4)))
 (let (($x1836 (= cell_9_2 3)))
 (let (($x990 (= cell_9_2 2)))
 (let (($x1718 (= cell_9_2 1)))
 (or $x1718 $x990 $x1836 $x2577 $x2642 $x2958 $x3381 $x2523 $x2103)))))))))))
(assert
 (let (($x2309 (= cell_1_3 9)))
 (let (($x1261 (= cell_1_3 8)))
 (let (($x3201 (= cell_1_3 7)))
 (let (($x966 (= cell_1_3 6)))
 (let (($x406 (= cell_1_3 5)))
 (let (($x601 (= cell_1_3 4)))
 (let (($x2346 (= cell_1_3 3)))
 (let (($x742 (= cell_1_3 2)))
 (let (($x2522 (= cell_1_3 1)))
 (or $x2522 $x742 $x2346 $x601 $x406 $x966 $x3201 $x1261 $x2309)))))))))))
(assert
 (let (($x2646 (= cell_2_3 9)))
 (let (($x755 (= cell_2_3 8)))
 (let (($x3330 (= cell_2_3 7)))
 (let (($x2920 (= cell_2_3 6)))
 (let (($x1392 (= cell_2_3 5)))
 (let (($x1711 (= cell_2_3 4)))
 (let (($x2480 (= cell_2_3 3)))
 (let (($x9 (= cell_2_3 2)))
 (let (($x1049 (= cell_2_3 1)))
 (or $x1049 $x9 $x2480 $x1711 $x1392 $x2920 $x3330 $x755 $x2646)))))))))))
(assert
 (let (($x843 (= cell_3_3 9)))
 (let (($x2352 (= cell_3_3 8)))
 (let (($x532 (= cell_3_3 7)))
 (let (($x2312 (= cell_3_3 6)))
 (let (($x1593 (= cell_3_3 5)))
 (let (($x2497 (= cell_3_3 4)))
 (let (($x1429 (= cell_3_3 3)))
 (let (($x3098 (= cell_3_3 2)))
 (let (($x1319 (= cell_3_3 1)))
 (or $x1319 $x3098 $x1429 $x2497 $x1593 $x2312 $x532 $x2352 $x843)))))))))))
(assert
 (let (($x2511 (= cell_4_3 9)))
 (let (($x184 (= cell_4_3 8)))
 (let (($x2118 (= cell_4_3 7)))
 (let (($x246 (= cell_4_3 6)))
 (let (($x3271 (= cell_4_3 5)))
 (let (($x2377 (= cell_4_3 4)))
 (let (($x183 (= cell_4_3 3)))
 (let (($x2130 (= cell_4_3 2)))
 (let (($x945 (= cell_4_3 1)))
 (or $x945 $x2130 $x183 $x2377 $x3271 $x246 $x2118 $x184 $x2511)))))))))))
(assert
 (let (($x652 (= cell_5_3 9)))
 (let (($x1701 (= cell_5_3 8)))
 (let (($x3108 (= cell_5_3 7)))
 (let (($x1273 (= cell_5_3 6)))
 (let (($x973 (= cell_5_3 5)))
 (let (($x2828 (= cell_5_3 4)))
 (let (($x2862 (= cell_5_3 3)))
 (let (($x1299 (= cell_5_3 2)))
 (let (($x381 (= cell_5_3 1)))
 (or $x381 $x1299 $x2862 $x2828 $x973 $x1273 $x3108 $x1701 $x652)))))))))))
(assert
 (let (($x1304 (= cell_6_3 9)))
 (let (($x480 (= cell_6_3 8)))
 (let (($x2755 (= cell_6_3 7)))
 (let (($x2096 (= cell_6_3 6)))
 (let (($x2034 (= cell_6_3 5)))
 (let (($x3302 (= cell_6_3 4)))
 (let (($x821 (= cell_6_3 3)))
 (let (($x1300 (= cell_6_3 2)))
 (let (($x1687 (= cell_6_3 1)))
 (or $x1687 $x1300 $x821 $x3302 $x2034 $x2096 $x2755 $x480 $x1304)))))))))))
(assert
 (let (($x3046 (= cell_7_3 9)))
 (let (($x441 (= cell_7_3 8)))
 (let (($x1096 (= cell_7_3 7)))
 (let (($x1240 (= cell_7_3 6)))
 (let (($x641 (= cell_7_3 5)))
 (let (($x1618 (= cell_7_3 4)))
 (let (($x2688 (= cell_7_3 3)))
 (let (($x825 (= cell_7_3 2)))
 (let (($x3366 (= cell_7_3 1)))
 (or $x3366 $x825 $x2688 $x1618 $x641 $x1240 $x1096 $x441 $x3046)))))))))))
(assert
 (let (($x2067 (= cell_8_3 9)))
 (let (($x533 (= cell_8_3 8)))
 (let (($x1332 (= cell_8_3 7)))
 (let (($x1867 (= cell_8_3 6)))
 (let (($x1513 (= cell_8_3 5)))
 (let (($x1652 (= cell_8_3 4)))
 (let (($x1409 (= cell_8_3 3)))
 (let (($x2813 (= cell_8_3 2)))
 (let (($x2612 (= cell_8_3 1)))
 (or $x2612 $x2813 $x1409 $x1652 $x1513 $x1867 $x1332 $x533 $x2067)))))))))))
(assert
 (let (($x556 (= cell_9_3 1)))
 (or $x556 (= cell_9_3 2) (= cell_9_3 3) (= cell_9_3 4) (= cell_9_3 5) (= cell_9_3 6) (= cell_9_3 7) (= cell_9_3 8) (= cell_9_3 9))))
(assert
 (let (($x2336 (= cell_1_4 9)))
 (let (($x1044 (= cell_1_4 8)))
 (let (($x2521 (= cell_1_4 7)))
 (let (($x2870 (= cell_1_4 6)))
 (let (($x1956 (= cell_1_4 5)))
 (let (($x2765 (= cell_1_4 4)))
 (let (($x1015 (= cell_1_4 3)))
 (let (($x304 (= cell_1_4 2)))
 (let (($x2850 (= cell_1_4 1)))
 (or $x2850 $x304 $x1015 $x2765 $x1956 $x2870 $x2521 $x1044 $x2336)))))))))))
(assert
 (let (($x1268 (= cell_2_4 9)))
 (let (($x2507 (= cell_2_4 8)))
 (let (($x2399 (= cell_2_4 7)))
 (let (($x1950 (= cell_2_4 6)))
 (let (($x424 (= cell_2_4 5)))
 (let (($x528 (= cell_2_4 4)))
 (let (($x1791 (= cell_2_4 3)))
 (let (($x280 (= cell_2_4 2)))
 (let (($x2090 (= cell_2_4 1)))
 (or $x2090 $x280 $x1791 $x528 $x424 $x1950 $x2399 $x2507 $x1268)))))))))))
(assert
 (let (($x351 (= cell_3_4 1)))
 (or $x351 (= cell_3_4 2) (= cell_3_4 3) (= cell_3_4 4) (= cell_3_4 5) (= cell_3_4 6) (= cell_3_4 7) (= cell_3_4 8) (= cell_3_4 9))))
(assert
 (let (($x2812 (= cell_4_4 9)))
 (let (($x3418 (= cell_4_4 8)))
 (let (($x1436 (= cell_4_4 7)))
 (let (($x3050 (= cell_4_4 6)))
 (let (($x1580 (= cell_4_4 5)))
 (let (($x1306 (= cell_4_4 4)))
 (let (($x1059 (= cell_4_4 3)))
 (let (($x3171 (= cell_4_4 2)))
 (let (($x1122 (= cell_4_4 1)))
 (or $x1122 $x3171 $x1059 $x1306 $x1580 $x3050 $x1436 $x3418 $x2812)))))))))))
(assert
 (let (($x3338 (= cell_5_4 9)))
 (let (($x617 (= cell_5_4 8)))
 (let (($x1979 (= cell_5_4 7)))
 (let (($x664 (= cell_5_4 6)))
 (let (($x3081 (= cell_5_4 5)))
 (let (($x2529 (= cell_5_4 4)))
 (let (($x2571 (= cell_5_4 3)))
 (let (($x3407 (= cell_5_4 2)))
 (let (($x1301 (= cell_5_4 1)))
 (or $x1301 $x3407 $x2571 $x2529 $x3081 $x664 $x1979 $x617 $x3338)))))))))))
(assert
 (let (($x1342 (= cell_6_4 9)))
 (let (($x2601 (= cell_6_4 8)))
 (let (($x2499 (= cell_6_4 7)))
 (let (($x1714 (= cell_6_4 6)))
 (let (($x597 (= cell_6_4 5)))
 (let (($x26 (= cell_6_4 4)))
 (let (($x2052 (= cell_6_4 3)))
 (let (($x1172 (= cell_6_4 2)))
 (let (($x761 (= cell_6_4 1)))
 (or $x761 $x1172 $x2052 $x26 $x597 $x1714 $x2499 $x2601 $x1342)))))))))))
(assert
 (let (($x2631 (= cell_7_4 9)))
 (let (($x373 (= cell_7_4 8)))
 (let (($x1396 (= cell_7_4 7)))
 (let (($x3153 (= cell_7_4 6)))
 (let (($x1674 (= cell_7_4 5)))
 (let (($x2836 (= cell_7_4 4)))
 (let (($x2409 (= cell_7_4 3)))
 (let (($x1787 (= cell_7_4 2)))
 (let (($x2486 (= cell_7_4 1)))
 (or $x2486 $x1787 $x2409 $x2836 $x1674 $x3153 $x1396 $x373 $x2631)))))))))))
(assert
 (let (($x4461 (= cell_8_4 9)))
 (let (($x1724 (= cell_8_4 8)))
 (let (($x1243 (= cell_8_4 7)))
 (let (($x1255 (= cell_8_4 6)))
 (let (($x2685 (= cell_8_4 5)))
 (let (($x1544 (= cell_8_4 4)))
 (let (($x158 (= cell_8_4 3)))
 (let (($x602 (= cell_8_4 2)))
 (let (($x1229 (= cell_8_4 1)))
 (or $x1229 $x602 $x158 $x1544 $x2685 $x1255 $x1243 $x1724 $x4461)))))))))))
(assert
 (let (($x2125 (= cell_9_4 1)))
 (or $x2125 (= cell_9_4 2) (= cell_9_4 3) (= cell_9_4 4) (= cell_9_4 5) (= cell_9_4 6) (= cell_9_4 7) (= cell_9_4 8) (= cell_9_4 9))))
(assert
 (let (($x2539 (= cell_1_5 9)))
 (let (($x3288 (= cell_1_5 8)))
 (let (($x2369 (= cell_1_5 7)))
 (let (($x2231 (= cell_1_5 6)))
 (let (($x906 (= cell_1_5 5)))
 (let (($x937 (= cell_1_5 4)))
 (let (($x1296 (= cell_1_5 3)))
 (let (($x1773 (= cell_1_5 2)))
 (let (($x3101 (= cell_1_5 1)))
 (or $x3101 $x1773 $x1296 $x937 $x906 $x2231 $x2369 $x3288 $x2539)))))))))))
(assert
 (let (($x315 (= cell_2_5 2)))
 (or (= cell_2_5 1) $x315 (= cell_2_5 3) (= cell_2_5 4) (= cell_2_5 5) (= cell_2_5 6) (= cell_2_5 7) (= cell_2_5 8) (= cell_2_5 9))))
(assert
 (let (($x3270 (= cell_3_5 9)))
 (let (($x2435 (= cell_3_5 8)))
 (let (($x590 (= cell_3_5 7)))
 (let (($x1455 (= cell_3_5 6)))
 (let (($x102 (= cell_3_5 5)))
 (let (($x1189 (= cell_3_5 4)))
 (let (($x662 (= cell_3_5 3)))
 (let (($x2819 (= cell_3_5 2)))
 (let (($x1915 (= cell_3_5 1)))
 (or $x1915 $x2819 $x662 $x1189 $x102 $x1455 $x590 $x2435 $x3270)))))))))))
(assert
 (let (($x1808 (= cell_4_5 9)))
 (let (($x1653 (= cell_4_5 8)))
 (let (($x2944 (= cell_4_5 7)))
 (let (($x456 (= cell_4_5 6)))
 (let (($x2465 (= cell_4_5 5)))
 (let (($x2609 (= cell_4_5 4)))
 (let (($x2811 (= cell_4_5 3)))
 (let (($x936 (= cell_4_5 2)))
 (let (($x350 (= cell_4_5 1)))
 (or $x350 $x936 $x2811 $x2609 $x2465 $x456 $x2944 $x1653 $x1808)))))))))))
(assert
 (let (($x1534 (= cell_5_5 9)))
 (let (($x179 (= cell_5_5 8)))
 (let (($x1885 (= cell_5_5 7)))
 (let (($x2302 (= cell_5_5 6)))
 (let (($x1350 (= cell_5_5 5)))
 (let (($x3341 (= cell_5_5 4)))
 (let (($x866 (= cell_5_5 3)))
 (let (($x509 (= cell_5_5 2)))
 (let (($x650 (= cell_5_5 1)))
 (or $x650 $x509 $x866 $x3341 $x1350 $x2302 $x1885 $x179 $x1534)))))))))))
(assert
 (let (($x2682 (= cell_6_5 9)))
 (let (($x2459 (= cell_6_5 8)))
 (let (($x2669 (= cell_6_5 7)))
 (let (($x1355 (= cell_6_5 6)))
 (let (($x2301 (= cell_6_5 5)))
 (let (($x1619 (= cell_6_5 4)))
 (let (($x717 (= cell_6_5 3)))
 (let (($x2320 (= cell_6_5 2)))
 (let (($x2694 (= cell_6_5 1)))
 (or $x2694 $x2320 $x717 $x1619 $x2301 $x1355 $x2669 $x2459 $x2682)))))))))))
(assert
 (let (($x1291 (= cell_7_5 9)))
 (let (($x488 (= cell_7_5 8)))
 (let (($x213 (= cell_7_5 7)))
 (let (($x2197 (= cell_7_5 6)))
 (let (($x2258 (= cell_7_5 5)))
 (let (($x1251 (= cell_7_5 4)))
 (let (($x426 (= cell_7_5 3)))
 (let (($x2272 (= cell_7_5 2)))
 (let (($x1287 (= cell_7_5 1)))
 (or $x1287 $x2272 $x426 $x1251 $x2258 $x2197 $x213 $x488 $x1291)))))))))))
(assert
 (let (($x2138 (= cell_8_5 1)))
 (or $x2138 (= cell_8_5 2) (= cell_8_5 3) (= cell_8_5 4) (= cell_8_5 5) (= cell_8_5 6) (= cell_8_5 7) (= cell_8_5 8) (= cell_8_5 9))))
(assert
 (let (($x3394 (= cell_9_5 2)))
 (let (($x1454 (= cell_9_5 1)))
 (or $x1454 $x3394 (= cell_9_5 3) (= cell_9_5 4) (= cell_9_5 5) (= cell_9_5 6) (= cell_9_5 7) (= cell_9_5 8) (= cell_9_5 9)))))
(assert
 (let (($x1861 (= cell_1_6 9)))
 (let (($x1587 (= cell_1_6 8)))
 (let (($x1556 (= cell_1_6 7)))
 (let (($x3356 (= cell_1_6 6)))
 (let (($x3003 (= cell_1_6 5)))
 (let (($x2517 (= cell_1_6 4)))
 (let (($x347 (= cell_1_6 3)))
 (let (($x1325 (= cell_1_6 2)))
 (let (($x2322 (= cell_1_6 1)))
 (or $x2322 $x1325 $x347 $x2517 $x3003 $x3356 $x1556 $x1587 $x1861)))))))))))
(assert
 (let (($x688 (= cell_2_6 9)))
 (let (($x349 (= cell_2_6 8)))
 (let (($x73 (= cell_2_6 7)))
 (let (($x1092 (= cell_2_6 6)))
 (let (($x1896 (= cell_2_6 5)))
 (let (($x1673 (= cell_2_6 4)))
 (let (($x3040 (= cell_2_6 3)))
 (let (($x1097 (= cell_2_6 2)))
 (let (($x1422 (= cell_2_6 1)))
 (or $x1422 $x1097 $x3040 $x1673 $x1896 $x1092 $x73 $x349 $x688)))))))))))
(assert
 (let (($x428 (= cell_3_6 9)))
 (let (($x713 (= cell_3_6 8)))
 (let (($x2532 (= cell_3_6 7)))
 (let (($x24 (= cell_3_6 6)))
 (let (($x4032 (= cell_3_6 5)))
 (let (($x321 (= cell_3_6 4)))
 (let (($x1226 (= cell_3_6 3)))
 (let (($x3012 (= cell_3_6 2)))
 (let (($x2743 (= cell_3_6 1)))
 (or $x2743 $x3012 $x1226 $x321 $x4032 $x24 $x2532 $x713 $x428)))))))))))
(assert
 (let (($x826 (= cell_4_6 9)))
 (let (($x1080 (= cell_4_6 8)))
 (let (($x3102 (= cell_4_6 7)))
 (let (($x34 (= cell_4_6 6)))
 (let (($x1951 (= cell_4_6 5)))
 (let (($x2187 (= cell_4_6 4)))
 (let (($x2827 (= cell_4_6 3)))
 (let (($x3733 (= cell_4_6 2)))
 (let (($x1644 (= cell_4_6 1)))
 (or $x1644 $x3733 $x2827 $x2187 $x1951 $x34 $x3102 $x1080 $x826)))))))))))
(assert
 (let (($x842 (= cell_5_6 9)))
 (let (($x567 (= cell_5_6 8)))
 (let (($x131 (= cell_5_6 7)))
 (let (($x358 (= cell_5_6 6)))
 (let (($x2535 (= cell_5_6 5)))
 (let (($x2890 (= cell_5_6 4)))
 (let (($x2502 (= cell_5_6 3)))
 (let (($x2562 (= cell_5_6 2)))
 (let (($x3337 (= cell_5_6 1)))
 (or $x3337 $x2562 $x2502 $x2890 $x2535 $x358 $x131 $x567 $x842)))))))))))
(assert
 (let (($x348 (= cell_6_6 1)))
 (or $x348 (= cell_6_6 2) (= cell_6_6 3) (= cell_6_6 4) (= cell_6_6 5) (= cell_6_6 6) (= cell_6_6 7) (= cell_6_6 8) (= cell_6_6 9))))
(assert
 (let (($x1160 (= cell_7_6 9)))
 (let (($x2702 (= cell_7_6 8)))
 (let (($x977 (= cell_7_6 7)))
 (let (($x594 (= cell_7_6 6)))
 (let (($x2723 (= cell_7_6 5)))
 (let (($x252 (= cell_7_6 4)))
 (let (($x285 (= cell_7_6 3)))
 (let (($x314 (= cell_7_6 2)))
 (let (($x1766 (= cell_7_6 1)))
 (or $x1766 $x314 $x285 $x252 $x2723 $x594 $x977 $x2702 $x1160)))))))))))
(assert
 (let (($x2460 (= cell_8_6 1)))
 (or $x2460 (= cell_8_6 2) (= cell_8_6 3) (= cell_8_6 4) (= cell_8_6 5) (= cell_8_6 6) (= cell_8_6 7) (= cell_8_6 8) (= cell_8_6 9))))
(assert
 (let (($x3276 (= cell_9_6 1)))
 (or $x3276 (= cell_9_6 2) (= cell_9_6 3) (= cell_9_6 4) (= cell_9_6 5) (= cell_9_6 6) (= cell_9_6 7) (= cell_9_6 8) (= cell_9_6 9))))
(assert
 (let (($x3373 (= cell_1_7 9)))
 (let (($x1862 (= cell_1_7 8)))
 (let (($x1193 (= cell_1_7 7)))
 (let (($x2798 (= cell_1_7 6)))
 (let (($x2370 (= cell_1_7 5)))
 (let (($x2734 (= cell_1_7 4)))
 (let (($x2245 (= cell_1_7 3)))
 (let (($x142 (= cell_1_7 2)))
 (let (($x2657 (= cell_1_7 1)))
 (or $x2657 $x142 $x2245 $x2734 $x2370 $x2798 $x1193 $x1862 $x3373)))))))))))
(assert
 (let (($x153 (= cell_2_7 9)))
 (let (($x2215 (= cell_2_7 8)))
 (let (($x848 (= cell_2_7 7)))
 (let (($x324 (= cell_2_7 6)))
 (let (($x325 (= cell_2_7 5)))
 (let (($x2075 (= cell_2_7 4)))
 (let (($x1708 (= cell_2_7 3)))
 (let (($x185 (= cell_2_7 2)))
 (let (($x2806 (= cell_2_7 1)))
 (or $x2806 $x185 $x1708 $x2075 $x325 $x324 $x848 $x2215 $x153)))))))))))
(assert
 (let (($x103 (= cell_3_7 9)))
 (let (($x2407 (= cell_3_7 8)))
 (let (($x2363 (= cell_3_7 7)))
 (let (($x510 (= cell_3_7 6)))
 (let (($x2386 (= cell_3_7 5)))
 (let (($x2645 (= cell_3_7 4)))
 (let (($x1491 (= cell_3_7 3)))
 (let (($x2400 (= cell_3_7 2)))
 (let (($x327 (= cell_3_7 1)))
 (or $x327 $x2400 $x1491 $x2645 $x2386 $x510 $x2363 $x2407 $x103)))))))))))
(assert
 (let (($x378 (= cell_4_7 9)))
 (let (($x2913 (= cell_4_7 8)))
 (let (($x1557 (= cell_4_7 7)))
 (let (($x1406 (= cell_4_7 6)))
 (let (($x1998 (= cell_4_7 5)))
 (let (($x1136 (= cell_4_7 4)))
 (let (($x2971 (= cell_4_7 3)))
 (let (($x2317 (= cell_4_7 2)))
 (let (($x2021 (= cell_4_7 1)))
 (or $x2021 $x2317 $x2971 $x1136 $x1998 $x1406 $x1557 $x2913 $x378)))))))))))
(assert
 (let (($x2810 (= cell_5_7 9)))
 (let (($x3080 (= cell_5_7 8)))
 (let (($x440 (= cell_5_7 7)))
 (let (($x2343 (= cell_5_7 6)))
 (let (($x2367 (= cell_5_7 5)))
 (let (($x338 (= cell_5_7 4)))
 (let (($x908 (= cell_5_7 3)))
 (let (($x2331 (= cell_5_7 2)))
 (let (($x2542 (= cell_5_7 1)))
 (or $x2542 $x2331 $x908 $x338 $x2367 $x2343 $x440 $x3080 $x2810)))))))))))
(assert
 (let (($x192 (= cell_6_7 9)))
 (let (($x2643 (= cell_6_7 8)))
 (let (($x2872 (= cell_6_7 7)))
 (let (($x1622 (= cell_6_7 6)))
 (let (($x2936 (= cell_6_7 5)))
 (let (($x991 (= cell_6_7 4)))
 (let (($x852 (= cell_6_7 3)))
 (let (($x1588 (= cell_6_7 2)))
 (let (($x1639 (= cell_6_7 1)))
 (or $x1639 $x1588 $x852 $x991 $x2936 $x1622 $x2872 $x2643 $x192)))))))))))
(assert
 (let (($x1007 (= cell_7_7 1)))
 (or $x1007 (= cell_7_7 2) (= cell_7_7 3) (= cell_7_7 4) (= cell_7_7 5) (= cell_7_7 6) (= cell_7_7 7) (= cell_7_7 8) (= cell_7_7 9))))
(assert
 (let (($x644 (= cell_8_7 1)))
 (or $x644 (= cell_8_7 2) (= cell_8_7 3) (= cell_8_7 4) (= cell_8_7 5) (= cell_8_7 6) (= cell_8_7 7) (= cell_8_7 8) (= cell_8_7 9))))
(assert
 (let (($x1322 (= cell_9_7 1)))
 (or $x1322 (= cell_9_7 2) (= cell_9_7 3) (= cell_9_7 4) (= cell_9_7 5) (= cell_9_7 6) (= cell_9_7 7) (= cell_9_7 8) (= cell_9_7 9))))
(assert
 (let (($x2835 (= cell_1_8 1)))
 (or $x2835 (= cell_1_8 2) (= cell_1_8 3) (= cell_1_8 4) (= cell_1_8 5) (= cell_1_8 6) (= cell_1_8 7) (= cell_1_8 8) (= cell_1_8 9))))
(assert
 (let (($x3284 (= cell_2_8 2)))
 (let (($x2627 (= cell_2_8 1)))
 (or $x2627 $x3284 (= cell_2_8 3) (= cell_2_8 4) (= cell_2_8 5) (= cell_2_8 6) (= cell_2_8 7) (= cell_2_8 8) (= cell_2_8 9)))))
(assert
 (let (($x2072 (= cell_3_8 2)))
 (let (($x2534 (= cell_3_8 1)))
 (or $x2534 $x2072 (= cell_3_8 3) (= cell_3_8 4) (= cell_3_8 5) (= cell_3_8 6) (= cell_3_8 7) (= cell_3_8 8) (= cell_3_8 9)))))
(assert
 (let (($x1466 (= cell_4_8 9)))
 (let (($x2859 (= cell_4_8 8)))
 (let (($x3233 (= cell_4_8 7)))
 (let (($x3017 (= cell_4_8 6)))
 (let (($x2009 (= cell_4_8 5)))
 (let (($x2201 (= cell_4_8 4)))
 (let (($x1831 (= cell_4_8 3)))
 (let (($x1658 (= cell_4_8 2)))
 (let (($x326 (= cell_4_8 1)))
 (or $x326 $x1658 $x1831 $x2201 $x2009 $x3017 $x3233 $x2859 $x1466)))))))))))
(assert
 (let (($x3301 (= cell_5_8 1)))
 (or $x3301 (= cell_5_8 2) (= cell_5_8 3) (= cell_5_8 4) (= cell_5_8 5) (= cell_5_8 6) (= cell_5_8 7) (= cell_5_8 8) (= cell_5_8 9))))
(assert
 (let (($x3225 (= cell_6_8 9)))
 (let (($x2107 (= cell_6_8 8)))
 (let (($x1683 (= cell_6_8 7)))
 (let (($x8125 (= cell_6_8 6)))
 (let (($x3417 (= cell_6_8 5)))
 (let (($x1253 (= cell_6_8 4)))
 (let (($x2046 (= cell_6_8 3)))
 (let (($x2239 (= cell_6_8 2)))
 (let (($x3229 (= cell_6_8 1)))
 (or $x3229 $x2239 $x2046 $x1253 $x3417 $x8125 $x1683 $x2107 $x3225)))))))))))
(assert
 (let (($x2719 (= cell_7_8 1)))
 (or $x2719 (= cell_7_8 2) (= cell_7_8 3) (= cell_7_8 4) (= cell_7_8 5) (= cell_7_8 6) (= cell_7_8 7) (= cell_7_8 8) (= cell_7_8 9))))
(assert
 (let (($x2963 (= cell_8_8 1)))
 (or $x2963 (= cell_8_8 2) (= cell_8_8 3) (= cell_8_8 4) (= cell_8_8 5) (= cell_8_8 6) (= cell_8_8 7) (= cell_8_8 8) (= cell_8_8 9))))
(assert
 (let (($x60 (= cell_9_8 1)))
 (or $x60 (= cell_9_8 2) (= cell_9_8 3) (= cell_9_8 4) (= cell_9_8 5) (= cell_9_8 6) (= cell_9_8 7) (= cell_9_8 8) (= cell_9_8 9))))
(assert
 (let (($x2080 (= cell_1_9 2)))
 (or (= cell_1_9 1) $x2080 (= cell_1_9 3) (= cell_1_9 4) (= cell_1_9 5) (= cell_1_9 6) (= cell_1_9 7) (= cell_1_9 8) (= cell_1_9 9))))
(assert
 (let (($x2168 (= cell_2_9 9)))
 (let (($x1307 (= cell_2_9 8)))
 (let (($x1780 (= cell_2_9 7)))
 (let (($x1525 (= cell_2_9 6)))
 (let (($x13 (= cell_2_9 5)))
 (let (($x1192 (= cell_2_9 4)))
 (let (($x2738 (= cell_2_9 3)))
 (let (($x412 (= cell_2_9 2)))
 (let (($x2996 (= cell_2_9 1)))
 (or $x2996 $x412 $x2738 $x1192 $x13 $x1525 $x1780 $x1307 $x2168)))))))))))
(assert
 (let (($x2885 (= cell_3_9 9)))
 (let (($x633 (= cell_3_9 8)))
 (let (($x3255 (= cell_3_9 7)))
 (let (($x2788 (= cell_3_9 6)))
 (let (($x2941 (= cell_3_9 5)))
 (let (($x738 (= cell_3_9 4)))
 (let (($x2141 (= cell_3_9 3)))
 (let (($x241 (= cell_3_9 2)))
 (let (($x1120 (= cell_3_9 1)))
 (or $x1120 $x241 $x2141 $x738 $x2941 $x2788 $x3255 $x633 $x2885)))))))))))
(assert
 (let (($x1303 (= cell_4_9 1)))
 (or $x1303 (= cell_4_9 2) (= cell_4_9 3) (= cell_4_9 4) (= cell_4_9 5) (= cell_4_9 6) (= cell_4_9 7) (= cell_4_9 8) (= cell_4_9 9))))
(assert
 (let (($x1812 (= cell_5_9 9)))
 (let (($x1830 (= cell_5_9 8)))
 (let (($x1444 (= cell_5_9 7)))
 (let (($x1633 (= cell_5_9 6)))
 (let (($x2658 (= cell_5_9 5)))
 (let (($x79 (= cell_5_9 4)))
 (let (($x3025 (= cell_5_9 3)))
 (let (($x3298 (= cell_5_9 2)))
 (let (($x2651 (= cell_5_9 1)))
 (or $x2651 $x3298 $x3025 $x79 $x2658 $x1633 $x1444 $x1830 $x1812)))))))))))
(assert
 (let (($x3360 (= cell_6_9 2)))
 (let (($x603 (= cell_6_9 1)))
 (or $x603 $x3360 (= cell_6_9 3) (= cell_6_9 4) (= cell_6_9 5) (= cell_6_9 6) (= cell_6_9 7) (= cell_6_9 8) (= cell_6_9 9)))))
(assert
 (let (($x1005 (= cell_7_9 2)))
 (let (($x2099 (= cell_7_9 1)))
 (or $x2099 $x1005 (= cell_7_9 3) (= cell_7_9 4) (= cell_7_9 5) (= cell_7_9 6) (= cell_7_9 7) (= cell_7_9 8) (= cell_7_9 9)))))
(assert
 (let (($x2217 (= cell_8_9 2)))
 (let (($x941 (= cell_8_9 1)))
 (or $x941 $x2217 (= cell_8_9 3) (= cell_8_9 4) (= cell_8_9 5) (= cell_8_9 6) (= cell_8_9 7) (= cell_8_9 8) (= cell_8_9 9)))))
(assert
 (let (($x2134 (= cell_9_9 2)))
 (let (($x419 (= cell_9_9 1)))
 (or $x419 $x2134 (= cell_9_9 3) (= cell_9_9 4) (= cell_9_9 5) (= cell_9_9 6) (= cell_9_9 7) (= cell_9_9 8) (= cell_9_9 9)))))
(assert
 (and (distinct cell_1_1 cell_1_2 cell_1_3 cell_1_4 cell_1_5 cell_1_6 cell_1_7 cell_1_8 cell_1_9) true))
(assert
 (and (distinct cell_2_1 cell_2_2 cell_2_3 cell_2_4 cell_2_5 cell_2_6 cell_2_7 cell_2_8 cell_2_9) true))
(assert
 (and (distinct cell_3_1 cell_3_2 cell_3_3 cell_3_4 cell_3_5 cell_3_6 cell_3_7 cell_3_8 cell_3_9) true))
(assert
 (and (distinct cell_4_1 cell_4_2 cell_4_3 cell_4_4 cell_4_5 cell_4_6 cell_4_7 cell_4_8 cell_4_9) true))
(assert
 (and (distinct cell_5_1 cell_5_2 cell_5_3 cell_5_4 cell_5_5 cell_5_6 cell_5_7 cell_5_8 cell_5_9) true))
(assert
 (and (distinct cell_6_1 cell_6_2 cell_6_3 cell_6_4 cell_6_5 cell_6_6 cell_6_7 cell_6_8 cell_6_9) true))
(assert
 (and (distinct cell_7_1 cell_7_2 cell_7_3 cell_7_4 cell_7_5 cell_7_6 cell_7_7 cell_7_8 cell_7_9) true))
(assert
 (and (distinct cell_8_1 cell_8_2 cell_8_3 cell_8_4 cell_8_5 cell_8_6 cell_8_7 cell_8_8 cell_8_9) true))
(assert
 (and (distinct cell_9_1 cell_9_2 cell_9_3 cell_9_4 cell_9_5 cell_9_6 cell_9_7 cell_9_8 cell_9_9) true))
(assert
 (and (distinct cell_1_1 cell_2_1 cell_3_1 cell_4_1 cell_5_1 cell_6_1 cell_7_1 cell_8_1 cell_9_1) true))
(assert
 (and (distinct cell_1_2 cell_2_2 cell_3_2 cell_4_2 cell_5_2 cell_6_2 cell_7_2 cell_8_2 cell_9_2) true))
(assert
 (and (distinct cell_1_3 cell_2_3 cell_3_3 cell_4_3 cell_5_3 cell_6_3 cell_7_3 cell_8_3 cell_9_3) true))
(assert
 (and (distinct cell_1_4 cell_2_4 cell_3_4 cell_4_4 cell_5_4 cell_6_4 cell_7_4 cell_8_4 cell_9_4) true))
(assert
 (and (distinct cell_1_5 cell_2_5 cell_3_5 cell_4_5 cell_5_5 cell_6_5 cell_7_5 cell_8_5 cell_9_5) true))
(assert
 (and (distinct cell_1_6 cell_2_6 cell_3_6 cell_4_6 cell_5_6 cell_6_6 cell_7_6 cell_8_6 cell_9_6) true))
(assert
 (and (distinct cell_1_7 cell_2_7 cell_3_7 cell_4_7 cell_5_7 cell_6_7 cell_7_7 cell_8_7 cell_9_7) true))
(assert
 (and (distinct cell_1_8 cell_2_8 cell_3_8 cell_4_8 cell_5_8 cell_6_8 cell_7_8 cell_8_8 cell_9_8) true))
(assert
 (and (distinct cell_1_9 cell_2_9 cell_3_9 cell_4_9 cell_5_9 cell_6_9 cell_7_9 cell_8_9 cell_9_9) true))
(assert
 (and (distinct cell_1_1 cell_1_2 cell_1_3 cell_2_1 cell_2_2 cell_2_3 cell_3_1 cell_3_2 cell_3_3) true))
(assert
 (and (distinct cell_1_4 cell_1_5 cell_1_6 cell_2_4 cell_2_5 cell_2_6 cell_3_4 cell_3_5 cell_3_6) true))
(assert
 (and (distinct cell_1_7 cell_1_8 cell_1_9 cell_2_7 cell_2_8 cell_2_9 cell_3_7 cell_3_8 cell_3_9) true))
(assert
 (and (distinct cell_4_1 cell_4_2 cell_4_3 cell_5_1 cell_5_2 cell_5_3 cell_6_1 cell_6_2 cell_6_3) true))
(assert
 (and (distinct cell_4_4 cell_4_5 cell_4_6 cell_5_4 cell_5_5 cell_5_6 cell_6_4 cell_6_5 cell_6_6) true))
(assert
 (and (distinct cell_4_7 cell_4_8 cell_4_9 cell_5_7 cell_5_8 cell_5_9 cell_6_7 cell_6_8 cell_6_9) true))
(assert
 (and (distinct cell_7_1 cell_7_2 cell_7_3 cell_8_1 cell_8_2 cell_8_3 cell_9_1 cell_9_2 cell_9_3) true))
(assert
 (and (distinct cell_7_4 cell_7_5 cell_7_6 cell_8_4 cell_8_5 cell_8_6 cell_9_4 cell_9_5 cell_9_6) true))
(assert
 (and (distinct cell_7_7 cell_7_8 cell_7_9 cell_8_7 cell_8_8 cell_8_9 cell_9_7 cell_9_8 cell_9_9) true))
(assert
 (let (($x1111 (and (distinct cell_5_9 cell_6_8 cell_7_7 cell_8_6) true)))
 (let (($x1183 (and (distinct cell_2_9 cell_3_8 cell_4_7 cell_5_6 cell_6_5 cell_7_4 cell_8_3 cell_9_2) true)))
 (let (($x3091 (and (distinct cell_1_8 cell_2_7 cell_3_6 cell_4_5 cell_5_4 cell_6_3 cell_7_2 cell_8_1) true)))
 (let (($x20 (and (distinct cell_1_5 cell_2_4 cell_3_3 cell_4_2) true)))
 (let (($x801 (and (distinct cell_5_1 cell_6_2 cell_7_3 cell_8_4) true)))
 (let (($x1477 (and (distinct cell_2_1 cell_3_2 cell_4_3 cell_5_4 cell_6_5 cell_7_6 cell_8_7 cell_9_8) true)))
 (let (($x3363 (and (distinct cell_1_2 cell_2_3 cell_3_4 cell_4_5 cell_5_6 cell_6_7 cell_7_8 cell_8_9) true)))
 (let (($x28 (and (distinct cell_1_5 cell_2_6 cell_3_7 cell_4_8) true)))
 (and $x28 $x3363 $x1477 $x801 $x20 $x3091 $x1183 $x1111))))))))))
(assert
 (= cell_3_1 2))
(check-sat)
